; benchmark generated from python API
(set-info :status unknown)
(declare-fun strlen_72_64 () (_ BitVec 64))
(declare-fun args_0_8 () (_ BitVec 8))
(declare-fun strlen_74_64 () (_ BitVec 64))
(declare-fun args_1_8 () (_ BitVec 8))
(declare-fun strlen_78_64 () (_ BitVec 64))
(declare-fun args_2_8 () (_ BitVec 8))
(declare-fun sigaction_oldact_174_1216 () (_ BitVec 1216))
(declare-fun sigaction_oldact_183_1216 () (_ BitVec 1216))
(declare-fun sigaction_oldact_197_1216 () (_ BitVec 1216))
(declare-fun sigaction_oldact_226_1216 () (_ BitVec 1216))
(declare-fun sigaction_oldact_277_1216 () (_ BitVec 1216))
(declare-fun sigaction_oldact_371_1216 () (_ BitVec 1216))
(declare-fun sigaction_oldact_549_1216 () (_ BitVec 1216))
(declare-fun sigaction_oldact_887_1216 () (_ BitVec 1216))
(declare-fun sigaction_oldact_1665_1216 () (_ BitVec 1216))
(declare-fun sigaction_oldact_3303_1216 () (_ BitVec 1216))
(assert
 (= (_ bv1 64) strlen_72_64))
(assert
 (let (($x69 (= (_ bv0 8) args_0_8)))
 (not $x69)))
(assert
 (let (($x190 (= (_ bv1 64) strlen_74_64)))
 (not $x190)))
(assert
 (let ((?x365 (bvadd (_ bv576460752303357826 64) strlen_74_64)))
 (let (($x347 (= (_ bv0 8) args_1_8)))
 (let ((?x355 (ite $x347 (_ bv576460752303357826 64) (_ bv576460752303357827 64))))
 (= ?x355 ?x365)))))
(assert
 (let (($x369 (= (_ bv0 8) args_2_8)))
 (let ((?x373 (ite $x369 (_ bv576460752303357828 64) (_ bv576460752303357829 64))))
 (let ((?x375 (bvsub ?x373 (_ bv576460752303357828 64))))
 (= ?x375 strlen_78_64)))))
(assert
 (let ((?x1768 ((_ extract 127 120) sigaction_oldact_174_1216)))
 (let ((?x2294 (bvand ?x1768 (_ bv4 8))))
 (and (distinct (_ bv0 8) ?x2294) true))))
(assert
 (let ((?x2603 ((_ extract 127 120) sigaction_oldact_183_1216)))
 (let ((?x2612 (bvand ?x2603 (_ bv4 8))))
 (and (distinct (_ bv0 8) ?x2612) true))))
(assert
 (let ((?x3432 ((_ extract 127 120) sigaction_oldact_197_1216)))
 (let ((?x3457 (bvand ?x3432 (_ bv4 8))))
 (and (distinct (_ bv0 8) ?x3457) true))))
(assert
 (let ((?x5345 ((_ extract 127 120) sigaction_oldact_226_1216)))
 (let ((?x5355 (bvand ?x5345 (_ bv4 8))))
 (= (_ bv0 8) ?x5355))))
(assert
 (let ((?x8628 ((_ extract 127 120) sigaction_oldact_277_1216)))
 (let ((?x8653 (bvand ?x8628 (_ bv4 8))))
 (= (_ bv0 8) ?x8653))))
(assert
 (let ((?x15048 ((_ extract 127 120) sigaction_oldact_371_1216)))
 (let ((?x15058 (bvand ?x15048 (_ bv4 8))))
 (= (_ bv0 8) ?x15058))))
(assert
 (let ((?x28051 ((_ extract 127 120) sigaction_oldact_549_1216)))
 (let ((?x28071 (bvand ?x28051 (_ bv4 8))))
 (= (_ bv0 8) ?x28071))))
(assert
 (let ((?x51013 ((_ extract 127 120) sigaction_oldact_887_1216)))
 (let ((?x5277 (bvand ?x51013 (_ bv4 8))))
 (and (distinct (_ bv0 8) ?x5277) true))))
(assert
 (let ((?x95079 ((_ extract 127 120) sigaction_oldact_1665_1216)))
 (let ((?x95096 (bvand ?x95079 (_ bv4 8))))
 (and (distinct (_ bv0 8) ?x95096) true))))
(assert
 (let ((?x187584 ((_ extract 127 120) sigaction_oldact_3303_1216)))
 (let ((?x149307 (bvand ?x187584 (_ bv4 8))))
 (and (distinct (_ bv0 8) ?x149307) true))))
(maximize strlen_74_64)
(maximize sigaction_oldact_277_1216)
(maximize sigaction_oldact_371_1216)
(minimize sigaction_oldact_197_1216)
(minimize args_1_8)
(maximize args_2_8)
(minimize args_2_8)
(minimize args_0_8)
(minimize sigaction_oldact_226_1216)
(maximize sigaction_oldact_549_1216)
(minimize sigaction_oldact_183_1216)
(check-sat)
(get-objectives)
